NAME: S101D5_20
COMMENT: 3225.7
VEHICLE: 48
TIME: 600
DIMENSION: 101
CAPACITY: 160
DELIVERY_SECTION
0 0 0
1 1 32
2 1 16
3 1 1.6
4 1 1.6
5 1 0.8
6 2 32
7 2 16
8 2 8
9 2 1.6
10 2 1.4
11 3 32
12 3 16
13 3 8
14 3 1.6
15 3 1.6
16 3 1.6
17 3 1.2
18 4 32
19 4 32
20 4 32
21 4 1.6
22 4 1.6
23 4 1.6
24 4 1.6
25 4 0.6
26 5 32
27 5 16
28 5 1.6
29 5 1.6
30 5 0.8
31 6 32
32 6 16
33 6 8
34 6 1.6
35 6 1.6
36 6 1.6
37 6 1.6
38 6 0.6
39 7 32
40 7 16
41 7 8
42 7 1.6
43 7 1.6
44 7 1.6
45 7 1.6
46 7 0.6
47 8 32
48 8 32
49 8 16
50 8 1.6
51 8 1.4
52 9 32
53 9 16
54 9 1.6
55 9 1.6
56 9 0.8
57 10 32
58 10 32
59 10 16
60 10 8
61 11 32
62 11 16
63 11 8
64 11 1.6
65 11 1.6
66 11 1.6
67 11 1.6
68 11 0.6
69 12 32
70 12 16
71 12 8
72 12 1
73 13 32
74 13 16
75 13 1.6
76 13 1.6
77 13 0.8
78 14 32
79 14 32
80 14 32
81 14 8
82 14 1.6
83 14 0.4
84 15 32
85 15 16
86 15 8
87 15 1.6
88 15 1.6
89 15 1.6
90 15 0.2
91 16 32
92 16 32
93 17 32
94 17 16
95 17 1.6
96 17 1.6
97 17 0.8
98 18 32
99 18 32
100 18 32
101 18 8
102 18 1.6
103 18 1.6
104 18 1.6
105 18 1.6
106 18 0.6
107 19 32
108 19 16
109 19 8
110 19 1
111 20 32
112 20 32
113 20 16
114 20 1.6
115 20 1.6
116 20 1.6
117 20 1.2
118 21 32
119 21 16
120 21 1.6
121 21 1.6
122 21 1.6
123 21 0.2
124 22 32
125 22 32
126 22 32
127 22 8
128 23 32
129 23 16
130 23 1.6
131 23 0.4
132 24 32
133 24 32
134 24 32
135 24 1.6
136 24 1.6
137 24 1.6
138 24 1.2
139 25 32
140 25 16
141 25 1.6
142 25 1.6
143 25 1.6
144 25 1.6
145 25 0.6
146 26 32
147 26 32
148 26 16
149 26 1.6
150 26 1.6
151 26 0.8
152 27 32
153 27 16
154 27 1.6
155 27 1.6
156 27 1.6
157 27 0.2
158 28 32
159 28 32
160 28 32
161 28 8
162 28 1.6
163 28 1.6
164 28 1.6
165 28 1.2
166 29 32
167 29 16
168 29 8
169 29 1
170 30 32
171 30 16
172 30 8
173 30 1.6
174 30 0.4
175 31 32
176 31 32
177 32 32
178 32 32
179 32 32
180 32 8
181 32 1.6
182 32 1.6
183 32 1.6
184 32 1.6
185 32 0.6
186 33 32
187 33 16
188 33 8
189 33 1.6
190 33 1.6
191 33 0.8
192 34 32
193 34 32
194 34 1
195 35 32
196 35 32
197 35 8
198 35 1.6
199 35 1.4
200 36 32
201 36 32
202 36 32
203 36 8
204 36 1.6
205 36 1.6
206 36 0.8
207 37 32
208 37 32
209 38 32
210 38 32
211 38 16
212 38 8
213 38 1
214 39 32
215 39 32
216 39 16
217 39 8
218 40 32
219 40 32
220 40 32
221 40 1.6
222 40 1.6
223 40 1.6
224 40 0.2
225 41 32
226 41 32
227 41 1.6
228 41 1.6
229 41 1.6
230 41 0.2
231 42 32
232 42 32
233 42 32
234 42 8
235 43 32
236 43 32
237 43 32
238 43 1.6
239 43 1.6
240 43 0.8
241 44 32
242 44 32
243 44 16
244 44 8
245 44 1.6
246 44 1.6
247 44 1.6
248 44 0.2
249 45 32
250 45 32
251 45 8
252 45 1.6
253 45 1.4
254 46 32
255 46 32
256 46 32
257 46 8
258 46 1.6
259 46 1.6
260 46 1.6
261 46 1.6
262 46 0.6
263 47 32
264 47 32
265 47 32
266 47 8
267 47 1.6
268 47 1.6
269 47 0.8
270 48 32
271 48 32
272 48 16
273 48 1.6
274 48 1.6
275 48 1.6
276 48 0.2
277 49 32
278 49 32
279 49 16
280 49 1.6
281 49 1.4
282 50 32
283 50 32
284 50 32
285 50 8
286 50 1.6
287 50 1.6
288 50 1.6
289 50 1.2
290 51 32
291 51 32
292 51 32
293 51 8
294 51 1.6
295 51 1.6
296 51 1.6
297 51 1.6
298 51 0.6
299 52 32
300 52 32
301 52 8
302 52 1.6
303 52 1.6
304 52 1.6
305 52 0.2
306 53 32
307 53 32
308 53 16
309 53 8
310 53 1.6
311 53 1.4
312 54 32
313 54 32
314 54 32
315 54 1.6
316 54 1.6
317 54 1.6
318 54 1.2
319 55 32
320 55 32
321 55 32
322 55 8
323 55 1.6
324 55 1.4
325 56 32
326 56 32
327 56 1.6
328 56 1.6
329 56 1.6
330 56 1.6
331 56 0.6
332 57 32
333 57 32
334 57 32
335 57 1.6
336 57 1.4
337 58 32
338 58 32
339 58 16
340 58 8
341 58 1.6
342 58 1.4
343 59 32
344 59 32
345 59 16
346 59 8
347 59 1.6
348 59 1.6
349 59 1.6
350 59 1.2
351 60 32
352 60 32
353 60 1
354 61 32
355 61 32
356 61 32
357 61 8
358 61 1.6
359 61 0.4
360 62 32
361 62 32
362 62 8
363 62 1.6
364 62 1.6
365 62 1.6
366 62 1.6
367 62 0.6
368 63 32
369 63 32
370 63 8
371 64 32
372 64 16
373 64 8
374 64 1.6
375 64 1.6
376 64 1.6
377 64 0.2
378 65 32
379 65 32
380 65 32
381 65 8
382 65 1.6
383 65 1.6
384 65 1.6
385 65 1.6
386 65 0.6
387 66 32
388 66 32
389 66 1.6
390 66 1.4
391 67 32
392 67 16
393 67 1.6
394 67 0.4
395 68 32
396 68 16
397 68 8
398 68 1.6
399 68 0.4
400 69 32
401 69 32
402 69 32
403 69 8
404 69 1.6
405 69 1.6
406 69 1.6
407 69 1.6
408 69 0.6
409 70 32
410 70 16
411 70 8
412 71 32
413 71 32
414 71 8
415 71 1.6
416 71 1.6
417 71 1.6
418 71 0.2
419 72 32
420 72 16
421 72 1.6
422 72 1.6
423 72 1.6
424 72 1.6
425 72 0.6
426 73 32
427 73 32
428 73 32
429 73 8
430 73 1
431 74 32
432 74 16
433 75 32
434 75 32
435 75 32
436 75 1.6
437 75 1.4
438 76 32
439 76 16
440 76 1.6
441 76 1.6
442 76 1.6
443 76 1.2
444 77 32
445 77 32
446 77 16
447 77 8
448 77 1.6
449 77 1.4
450 78 32
451 78 16
452 78 1.6
453 78 1.6
454 78 1.6
455 78 1.6
456 78 0.6
457 79 32
458 79 32
459 79 32
460 79 8
461 79 1.6
462 79 1.6
463 79 1.6
464 79 1.6
465 79 0.6
466 80 32
467 80 16
468 80 1.6
469 80 1.6
470 80 1.6
471 80 0.2
472 81 32
473 81 32
474 81 1.6
475 81 1.6
476 81 1.6
477 81 1.6
478 81 0.6
479 82 32
480 82 16
481 82 8
482 82 1.6
483 82 1.6
484 82 0.8
485 83 32
486 83 32
487 83 32
488 83 8
489 83 1.6
490 83 1.6
491 83 1.6
492 83 0.2
493 84 32
494 84 16
495 84 1.6
496 84 1.6
497 84 0.8
498 85 32
499 85 16
500 85 1.6
501 85 0.4
502 86 32
503 86 16
504 86 8
505 86 1.6
506 86 1.6
507 86 1.6
508 86 1.6
509 86 0.6
510 87 32
511 87 32
512 87 16
513 87 8
514 87 1.6
515 87 1.6
516 87 1.6
517 87 1.2
518 88 32
519 88 16
520 88 1.6
521 88 1.6
522 88 0.8
523 89 32
524 89 32
525 89 8
526 89 1.6
527 89 1.6
528 89 1.6
529 89 0.2
530 90 32
531 90 32
532 91 32
533 91 32
534 91 1.6
535 91 1.6
536 91 1.6
537 91 1.2
538 92 32
539 92 16
540 92 1.6
541 92 1.6
542 92 0.8
543 93 32
544 93 32
545 93 32
546 93 1.6
547 93 0.4
548 94 32
549 94 16
550 94 8
551 94 1.6
552 94 1.6
553 94 1.6
554 94 1.2
555 95 32
556 95 16
557 95 1.6
558 95 1.6
559 95 0.8
560 96 32
561 96 16
562 96 1.6
563 96 1.6
564 96 0.8
565 97 32
566 97 32
567 97 32
568 97 8
569 97 1.6
570 97 1.6
571 97 1.6
572 97 1.2
573 98 32
574 98 16
575 98 8
576 98 1.6
577 98 1.4
578 99 32
579 99 32
580 99 8
581 99 1.6
582 99 1.6
583 99 1.6
584 99 0.2
585 100 32
586 100 16
587 100 1.6
588 100 1.6
589 100 1.6
590 100 0.2
PICKUP_SECTION
NODE_SECTION
35 35

41 49

35 17

55 45

55 20

15 30

25 30

20 50

10 43

55 60

30 60

20 65

50 35

30 25

15 10

30  5

10 20

 5 30

20 40

15 60

45 65

45 20

45 10

55  5

65 35

65 20

45 30

35 40

41 37

64 42

40 60

31 52

35 69

53 52

65 55

63 65

 2 60

20 20

 5  5

60 12

40 25

42  7

24 12

23  3

11 14

 6 38

 2 48

 8 56

13 52
 
6 68

47 47

49 58

27 43

37 31

57 29

63 23

53 12

32 12

36 26

21 24

17 34

12 24

24 58

27 69

15 77

62 77

49 73

67  5

56 39

37 47

37 56

57 68

47 16

44 17

46 13

49 11

49 42

53 43

61 52

57 48

56 37

55 54

15 47

14 37

11 31

16 22

 4 18

28 18

26 52

26 35

31 67

15 19

22 22

18 24

26 27

25 24

22 27

25 21

19 21

20 26

18 18
DISTANCE_SECTION
DEPOT_SECTION
0
EOF